(set-option :produce-models true)
(set-logic QF_UF)
(declare-fun p2() Bool)
(declare-fun p22() Bool)
(declare-fun p18() Bool)
(declare-fun p16() Bool)
(declare-fun p20() Bool)
(declare-fun p9() Bool)
(declare-fun p24() Bool)
(declare-fun p0() Bool)
(declare-fun p3() Bool)
(declare-fun p5() Bool)
(declare-fun p21() Bool)
(declare-fun p1() Bool)
(declare-fun p15() Bool)
(declare-fun p6() Bool)
(declare-fun p14() Bool)
(declare-fun p23() Bool)
(declare-fun p10() Bool)
(declare-fun p8() Bool)
(declare-fun p11() Bool)
(declare-fun p4() Bool)
(declare-fun p17() Bool)
(declare-fun p13() Bool)
(declare-fun p19() Bool)
(declare-fun p12() Bool)
(declare-fun p7() Bool)
(assert
(and (or (not p2) (not p22) (not p18)) (or (not p16) (not p20) p9) (or p24 p0 p20) (or p3 (not p18) (not p3)) (or p5 p0 p21) (or p9 (not p1) (not p20)) (or p15 p6 p14) (or p23 (not p10) (not p8)) (or p21 p16 (not p11)) (or p20 p4 p0) (or p15 (not p23) (not p4)) (or (not p10) (not p0) p23) (or p3 p22 (not p18)) (or p8 p18 (not p17)) (or p20 (not p17) p14) (or p21 p11 p2) (or p8 (not p13) p5) (or p15 (not p20) (not p16)) (or (not p21) (not p23) (not p10)) (or p17 p2 p0) (or p17 p22 p23) (or (not p4) (not p16) (not p4)) (or (not p3) p17 p14) (or p22 p4 (not p0)) (or p8 p15 p18) (or p5 p14 (not p19)) (or p10 (not p22) (not p3)) (or (not p0) (not p12) (not p20)) (or (not p23) (not p15) p6) (or p12 (not p9) p19) (or p7 (not p21) p10) (or (not p15) p19 (not p0)) (or (not p23) p8 (not p3)) (or p3 (not p12) (not p7)) (or (not p16) (not p4) (not p24)) (or p12 (not p13) p10) (or (not p6) (not p14) p11) (or (not p16) p18 (not p2)) (or (not p5) (not p14) (not p7)) (or (not p6) p14 (not p1)) (or (not p20) (not p0) p3) (or (not p14) p8 (not p7)) (or p0 p24 p5) (or p8 (not p6) p0) (or p14 (not p1) (not p1)) (or p21 p24 (not p8)) (or (not p2) (not p3) p11) (or p11 p17 p17) (or p24 (not p22) (not p4)) (or p23 (not p9) p19) (or p18 (not p17) (not p9)) (or p13 p22 (not p4)) (or (not p6) p18 p8) (or (not p8) p3 (not p17)) (or (not p17) p5 p19) (or p18 (not p16) (not p10)) (or p4 (not p3) p12) (or p8 p12 (not p23)) (or p23 p7 (not p8)) (or (not p24) p6 (not p0)) (or (not p20) p11 (not p11)) (or p3 p24 p8) (or p22 p21 p6) (or p15 p20 (not p5)) (or (not p11) (not p14) p22) (or p0 (not p10) (not p15)) (or p11 p1 (not p15)) (or p8 p0 (not p15)) (or p4 p12 (not p19)) (or p6 (not p12) (not p7)) (or (not p20) p20 p3) (or p18 (not p15) (not p2)) (or p14 (not p4) (not p13)) (or p13 (not p14) (not p10)) (or (not p23) (not p12) p7) (or p13 p16 p18) (or p22 (not p19) p9) (or (not p12) (not p0) (not p6)) (or (not p0) p7 p22) (or p14 (not p6) (not p16)) (or p9 p21 (not p10)) (or p10 (not p11) (not p24)) (or p7 p12 (not p20)) (or p2 p11 (not p21)) (or p6 (not p24) (not p20)) (or p16 (not p10) p20) (or (not p2) p18 p21) (or p24 (not p7) p23) (or p8 (not p11) (not p21)) (or (not p16) (not p22) p16) (or (not p21) (not p12) p10) (or p19 p17 (not p17)) (or p13 (not p11) p3) (or p7 p12 p0) (or (not p20) p13 (not p15)) (or p15 (not p6) (not p4)) (or p18 (not p1) p24) (or (not p6) p21 p2) (or (not p18) (not p6) (not p21)) (or p15 (not p14) p10) (or (not p14) (not p2) p9) (or p16 p17 (not p2)) (or (not p20) p21 (not p21)) (or p5 p10 p15) (or (not p24) p11 p2) (or (not p15) (not p2) (not p15)) (or p16 (not p21) p8))
)
(check-sat)
(get-model)
